(set-info :source |printed by MathSAT|)
(declare-fun |.x{32}| () (Array Int Int))
(declare-fun |.x{37}| () (Array Int Int))
(declare-fun |.y{4}| () Int)
(declare-fun |.y{8}| () Int)
(declare-fun |.y{5}| () Int)
(declare-fun |.y{9}| () Int)
(declare-fun |.y{6}| () Int)
(declare-fun |.y{10}| () Int)
(declare-fun |.x{33}| () (Array Int Int))
(declare-fun |.x{38}| () (Array Int Int))
(declare-fun |.x{34}| () Int)
(declare-fun |.x{39}| () Int)
(declare-fun |.x{35}| () Int)
(declare-fun |.x{40}| () Int)
(declare-fun |.x{36}| () Int)
(declare-fun |.x{41}| () Int)
(declare-fun |.y{7}| () Int)
(declare-fun |.x{42}| () Int)
(declare-fun |.loc{3}| () Bool)
(declare-fun |.loc{5}| () Bool)
(declare-fun |.loc{4}| () Bool)
(declare-fun |.loc{6}| () Bool)
(define-fun .def_26 () Bool (! |.loc{3}| :next |.loc{5}|))
(define-fun .def_39 () Bool (not .def_26))
(define-fun .def_28 () Bool (! |.loc{4}| :next |.loc{6}|))
(define-fun .def_31 () Bool (not .def_28))
(define-fun .def_124 () Bool (and .def_31 .def_39))
(define-fun .def_14 () Int (! |.y{6}| :next |.y{10}|))
(define-fun .def_121 () Int (* (- 1) .def_14))
(define-fun .def_10 () Int (! |.y{4}| :next |.y{8}|))
(define-fun .def_122 () Int (+ .def_10 .def_121))
(define-fun .def_123 () Bool (= .def_122 (- 1)))
(define-fun .def_125 () Bool (! (and .def_123 .def_124) :init true))
(define-fun .def_8 () (Array Int Int) (! |.x{32}| :next |.x{37}|))
(define-fun .def_119 () Bool (= .def_8 |.x{37}|))
(define-fun .def_111 () Bool (= |.x{41}| 0))
(define-fun .def_22 () Int (! |.x{36}| :next |.x{41}|))
(define-fun .def_106 () Bool (= .def_22 |.x{42}|))
(define-fun .def_107 () Bool (and .def_26 .def_106))
(define-fun .def_108 () Bool (and .def_31 .def_107))
(define-fun .def_18 () Int (! |.x{34}| :next |.x{39}|))
(define-fun .def_61 () Bool (<= .def_22 .def_18))
(define-fun .def_109 () Bool (and .def_61 .def_108))
(define-fun .def_81 () Bool (= |.x{39}| 0))
(define-fun .def_110 () Bool (and .def_81 .def_109))
(define-fun .def_112 () Bool (and .def_110 .def_111))
(define-fun .def_24 () Int (! |.y{7}| :next |.x{42}|))
(define-fun .def_103 () Bool (<= .def_24 .def_18))
(define-fun .def_104 () Bool (not .def_103))
(define-fun .def_16 () (Array Int Int) (! |.x{33}| :next |.x{38}|))
(define-fun .def_95 () Int (select .def_16 .def_18))
(define-fun .def_96 () Int (* (- 1) |.x{41}|))
(define-fun .def_99 () Int (+ .def_96 .def_95))
(define-fun .def_100 () Int (+ .def_22 .def_99))
(define-fun .def_101 () Bool (= .def_100 0))
(define-fun .def_93 () Bool (= .def_24 |.x{42}|))
(define-fun .def_55 () Int (* (- 1) |.x{39}|))
(define-fun .def_56 () Int (+ .def_18 .def_55))
(define-fun .def_57 () Bool (= .def_56 (- 1)))
(define-fun .def_91 () Bool (and .def_28 .def_57))
(define-fun .def_92 () Bool (and .def_39 .def_91))
(define-fun .def_94 () Bool (and .def_92 .def_93))
(define-fun .def_102 () Bool (and .def_94 .def_101))
(define-fun .def_105 () Bool (and .def_102 .def_104))
(define-fun .def_113 () Bool (or .def_105 .def_112))
(define-fun .def_89 () Bool (= .def_16 |.x{38}|))
(define-fun .def_30 () Bool (not |.loc{5}|))
(define-fun .def_88 () Bool (and |.loc{6}| .def_30))
(define-fun .def_90 () Bool (and .def_88 .def_89))
(define-fun .def_114 () Bool (and .def_90 .def_113))
(define-fun .def_20 () Int (! |.x{35}| :next |.x{40}|))
(define-fun .def_66 () Bool (= .def_20 |.x{40}|))
(define-fun .def_115 () Bool (and .def_66 .def_114))
(define-fun .def_12 () Int (! |.y{5}| :next |.y{9}|))
(define-fun .def_86 () Bool (= .def_12 |.x{40}|))
(define-fun .def_84 () Bool (= .def_14 |.x{41}|))
(define-fun .def_36 () Bool (<= .def_10 0))
(define-fun .def_78 () Bool (and .def_31 .def_36))
(define-fun .def_79 () Bool (and |.loc{5}| .def_78))
(define-fun .def_80 () Bool (and .def_39 .def_79))
(define-fun .def_82 () Bool (and .def_80 .def_81))
(define-fun .def_53 () Bool (not |.loc{6}|))
(define-fun .def_83 () Bool (and .def_53 .def_82))
(define-fun .def_85 () Bool (and .def_83 .def_84))
(define-fun .def_87 () Bool (and .def_85 .def_86))
(define-fun .def_116 () Bool (or .def_87 .def_115))
(define-fun .def_70 () Int (+ .def_55 .def_22))
(define-fun .def_71 () Int (select .def_8 .def_70))
(define-fun .def_72 () Int (* (- 1) .def_20))
(define-fun .def_74 () Int (+ .def_72 .def_71))
(define-fun .def_75 () (Array Int Int) (store .def_16 .def_18 .def_74))
(define-fun .def_76 () Bool (= |.x{38}| .def_75))
(define-fun .def_64 () Bool (= .def_22 |.x{41}|))
(define-fun .def_62 () Bool (not .def_61))
(define-fun .def_58 () Bool (and .def_26 .def_31))
(define-fun .def_59 () Bool (and .def_57 .def_58))
(define-fun .def_60 () Bool (and |.loc{5}| .def_59))
(define-fun .def_63 () Bool (and .def_60 .def_62))
(define-fun .def_65 () Bool (and .def_63 .def_64))
(define-fun .def_67 () Bool (and .def_65 .def_66))
(define-fun .def_68 () Bool (and .def_53 .def_67))
(define-fun .def_77 () Bool (and .def_68 .def_76))
(define-fun .def_117 () Bool (or .def_77 .def_116))
(define-fun .def_49 () Int (* (- 1) |.y{8}|))
(define-fun .def_50 () Int (+ .def_10 .def_49))
(define-fun .def_51 () Bool (= .def_50 1))
(define-fun .def_41 () Int (select .def_8 .def_10))
(define-fun .def_42 () Bool (<= .def_12 .def_41))
(define-fun .def_43 () Bool (not .def_42))
(define-fun .def_44 () Int (ite .def_43 .def_41 .def_12))
(define-fun .def_45 () Bool (= |.y{9}| .def_44))
(define-fun .def_37 () Bool (not .def_36))
(define-fun .def_33 () Bool (= .def_14 |.y{10}|))
(define-fun .def_32 () Bool (and .def_30 .def_31))
(define-fun .def_34 () Bool (and .def_32 .def_33))
(define-fun .def_38 () Bool (and .def_34 .def_37))
(define-fun .def_40 () Bool (and .def_38 .def_39))
(define-fun .def_46 () Bool (and .def_40 .def_45))
(define-fun .def_52 () Bool (and .def_46 .def_51))
(define-fun .def_54 () Bool (and .def_52 .def_53))
(define-fun .def_118 () Bool (or .def_54 .def_117))
(define-fun .def_120 () Bool (! (and .def_118 .def_119) :trans true))
(define-fun .def_129 () Bool (and .def_28 .def_39))
(define-fun .def_126 () Bool (<= 0 .def_22))
(define-fun .def_127 () Bool (not .def_126))
(define-fun .def_128 () Bool (and .def_103 .def_127))
(define-fun .def_130 () Bool (and .def_128 .def_129))
(define-fun .def_131 () Bool (! (not .def_130) :invar-property 0))
(assert true)
